QPLIB_3745
QBB
maximize
325 # number of variables
624 # number of quadratic terms in objective
2 1 4.0
37 1 -4.0
147 1 -4.0
148 1 4.0
145 2 -4.0
164 2 -4.0
277 2 4.0
168 3 -4.0
185 3 4.0
256 3 4.0
283 3 -4.0
5 4 4.0
98 4 -4.0
235 4 4.0
325 4 -4.0
14 5 -4.0
99 5 -4.0
324 5 4.0
7 6 4.0
160 6 -4.0
270 6 -4.0
302 6 4.0
104 7 -4.0
106 7 -4.0
217 7 4.0
18 8 -4.0
98 8 4.0
258 8 4.0
288 8 -4.0
10 9 4.0
20 9 4.0
26 9 -4.0
142 9 -4.0
67 10 -4.0
12 11 4.0
13 11 -4.0
43 11 4.0
244 11 -4.0
38 12 4.0
103 12 -4.0
104 12 -4.0
52 13 4.0
108 13 -4.0
268 13 4.0
185 14 -4.0
285 14 4.0
322 14 4.0
100 15 4.0
157 15 -4.0
17 16 4.0
31 16 -4.0
201 16 4.0
272 16 -4.0
35 17 -4.0
109 17 -4.0
305 17 4.0
54 18 4.0
208 18 4.0
318 18 -4.0
168 19 -4.0
288 19 -4.0
289 19 4.0
319 19 4.0
51 20 4.0
102 20 -4.0
143 20 -4.0
22 21 4.0
28 21 4.0
105 21 -4.0
161 21 -4.0
51 22 -4.0
174 22 -4.0
215 22 4.0
24 23 4.0
163 23 -4.0
221 23 4.0
246 23 -4.0
35 24 4.0
107 24 -4.0
162 24 -4.0
201 25 -4.0
203 25 4.0
221 25 4.0
224 25 -4.0
47 26 4.0
158 26 -4.0
292 26 4.0
47 27 -4.0
90 27 4.0
101 27 4.0
158 27 -4.0
101 28 -4.0
243 28 4.0
269 28 -4.0
133 29 4.0
217 29 4.0
243 29 -4.0
272 29 -4.0
31 30 -4.0
41 30 4.0
249 30 4.0
252 30 -4.0
64 31 4.0
179 31 4.0
100 32 -4.0
116 32 4.0
174 32 -4.0
262 32 4.0
93 33 4.0
103 33 4.0
116 33 -4.0
143 33 -4.0
73 34 4.0
103 34 -4.0
143 34 -4.0
177 34 4.0
38 35 4.0
218 35 -4.0
163 36 -4.0
223 36 4.0
275 36 4.0
278 36 -4.0
49 37 4.0
223 37 4.0
226 37 -4.0
196 38 -4.0
198 38 -4.0
146 39 -4.0
251 39 4.0
306 39 4.0
309 39 -4.0
41 40 -4.0
45 40 4.0
165 40 -4.0
251 40 4.0
87 41 4.0
179 41 -4.0
79 42 4.0
167 42 -4.0
228 42 -4.0
285 42 4.0
199 43 -4.0
272 43 -4.0
300 43 4.0
86 44 -4.0
145 44 4.0
272 44 4.0
273 44 -4.0
113 45 -4.0
126 45 4.0
136 45 -4.0
75 46 4.0
150 46 -4.0
206 46 -4.0
258 46 4.0
105 47 -4.0
264 47 4.0
92 48 -4.0
246 48 4.0
247 48 -4.0
306 48 4.0
117 49 -4.0
122 49 4.0
149 49 -4.0
70 50 4.0
137 50 -4.0
182 50 -4.0
230 50 4.0
240 51 4.0
296 51 -4.0
91 52 -4.0
296 52 4.0
299 52 -4.0
121 53 4.0
148 53 -4.0
202 53 4.0
276 53 -4.0
127 54 -4.0
167 54 -4.0
286 54 4.0
111 55 4.0
175 55 -4.0
214 55 4.0
266 55 -4.0
125 56 4.0
135 56 -4.0
222 56 4.0
250 56 -4.0
83 57 -4.0
143 57 4.0
192 57 -4.0
295 57 4.0
216 58 4.0
244 58 -4.0
267 58 -4.0
302 58 4.0
78 59 -4.0
82 59 4.0
221 59 4.0
304 59 -4.0
63 60 4.0
123 60 4.0
129 60 -4.0
138 60 -4.0
67 61 -4.0
158 61 4.0
238 61 -4.0
265 61 4.0
78 62 4.0
164 62 -4.0
201 62 4.0
273 62 -4.0
66 63 4.0
128 63 -4.0
151 63 -4.0
146 64 -4.0
200 64 4.0
247 64 -4.0
253 65 4.0
308 65 4.0
309 65 -4.0
312 65 -4.0
70 66 4.0
138 66 -4.0
286 66 -4.0
131 67 4.0
293 67 4.0
163 68 4.0
164 68 -4.0
223 68 -4.0
277 68 4.0
277 69 4.0
278 69 -4.0
279 69 4.0
280 69 -4.0
257 70 -4.0
259 70 -4.0
79 71 4.0
138 71 -4.0
168 71 4.0
169 71 -4.0
192 72 4.0
292 72 -4.0
91 73 -4.0
293 73 4.0
294 73 -4.0
88 74 -4.0
251 74 4.0
252 74 -4.0
311 74 4.0
151 75 4.0
229 75 -4.0
231 75 -4.0
213 76 4.0
262 76 -4.0
94 77 -4.0
159 77 4.0
263 77 4.0
264 77 -4.0
81 78 4.0
245 78 -4.0
207 79 -4.0
208 79 -4.0
238 80 4.0
239 80 -4.0
217 81 4.0
218 81 -4.0
220 81 -4.0
179 82 4.0
305 82 -4.0
307 82 -4.0
84 83 4.0
85 83 4.0
264 83 -4.0
291 84 -4.0
292 85 -4.0
202 86 4.0
274 86 4.0
276 86 -4.0
88 87 4.0
203 87 -4.0
280 87 -4.0
205 88 4.0
254 88 -4.0
262 89 -4.0
291 89 4.0
91 90 4.0
216 90 -4.0
241 90 -4.0
295 91 4.0
222 92 4.0
248 92 4.0
250 92 -4.0
94 93 4.0
241 93 -4.0
267 93 -4.0
265 94 4.0
297 94 -4.0
96 95 4.0
261 95 -4.0
97 96 -4.0
323 96 4.0
324 96 -4.0
325 97 4.0
99 98 -4.0
233 98 -4.0
186 99 -4.0
230 99 4.0
111 100 -4.0
156 100 -4.0
175 101 -4.0
298 101 -4.0
131 102 4.0
132 102 -4.0
173 102 -4.0
298 103 -4.0
159 104 -4.0
266 104 4.0
108 105 -4.0
112 105 -4.0
160 106 -4.0
176 106 -4.0
296 106 4.0
242 107 4.0
246 107 -4.0
269 107 -4.0
160 108 -4.0
194 108 -4.0
219 109 -4.0
268 109 4.0
301 109 -4.0
114 110 -4.0
325 110 -4.0
112 111 -4.0
157 111 -4.0
132 112 -4.0
266 112 4.0
180 113 -4.0
203 113 -4.0
277 113 4.0
115 114 -4.0
139 114 4.0
153 114 -4.0
119 115 -4.0
294 116 4.0
296 116 4.0
204 117 -4.0
224 117 -4.0
308 117 4.0
127 118 -4.0
137 118 -4.0
165 118 4.0
204 118 -4.0
120 119 -4.0
128 119 4.0
170 119 -4.0
123 120 -4.0
165 121 -4.0
225 121 -4.0
252 121 -4.0
137 122 -4.0
150 122 -4.0
225 122 -4.0
124 123 -4.0
189 123 -4.0
129 124 -4.0
180 125 -4.0
253 125 -4.0
278 125 -4.0
150 126 -4.0
167 126 -4.0
253 126 -4.0
313 127 -4.0
317 127 4.0
140 128 -4.0
152 128 -4.0
130 129 -4.0
210 129 -4.0
140 130 -4.0
193 132 -4.0
239 132 4.0
134 133 -4.0
144 133 -4.0
198 133 -4.0
145 134 -4.0
163 134 -4.0
220 134 4.0
204 135 -4.0
279 135 -4.0
309 135 -4.0
167 136 -4.0
182 136 -4.0
279 136 -4.0
183 137 -4.0
139 138 -4.0
154 139 -4.0
169 139 -4.0
141 140 -4.0
234 140 -4.0
154 141 -4.0
192 142 -4.0
146 144 -4.0
219 144 -4.0
249 144 4.0
147 145 -4.0
147 146 -4.0
251 147 -4.0
225 148 -4.0
311 148 -4.0
182 149 -4.0
206 149 -4.0
311 149 -4.0
317 150 -4.0
152 151 -4.0
320 151 -4.0
153 152 -4.0
187 152 -4.0
171 153 -4.0
188 153 -4.0
155 154 -4.0
323 154 -4.0
171 155 -4.0
213 156 -4.0
237 157 -4.0
263 157 4.0
159 158 -4.0
177 159 -4.0
242 160 4.0
177 161 -4.0
197 161 -4.0
242 161 -4.0
164 162 -4.0
199 162 -4.0
275 162 4.0
166 165 -4.0
206 166 -4.0
228 166 -4.0
312 166 4.0
183 168 -4.0
170 169 -4.0
208 169 -4.0
190 170 -4.0
209 170 -4.0
172 171 -4.0
290 171 -4.0
190 172 -4.0
238 173 -4.0
176 174 -4.0
263 174 4.0
193 175 -4.0
195 175 4.0
195 176 -4.0
265 176 4.0
178 177 -4.0
195 178 -4.0
217 178 -4.0
268 178 4.0
308 179 4.0
181 180 -4.0
313 180 -4.0
228 181 -4.0
255 181 -4.0
280 181 4.0
184 182 -4.0
186 183 -4.0
316 183 -4.0
186 184 -4.0
255 184 -4.0
319 184 4.0
187 185 4.0
317 185 4.0
187 186 -4.0
188 187 -4.0
189 188 -4.0
231 188 -4.0
211 189 -4.0
232 189 -4.0
191 190 -4.0
324 190 -4.0
211 191 -4.0
293 192 -4.0
194 193 -4.0
293 193 4.0
215 194 -4.0
295 194 4.0
196 195 -4.0
215 196 -4.0
300 196 4.0
198 197 -4.0
241 197 4.0
270 197 -4.0
200 198 -4.0
244 199 -4.0
274 199 4.0
271 200 -4.0
274 200 -4.0
202 201 4.0
203 202 -4.0
205 204 -4.0
255 205 -4.0
282 205 -4.0
207 206 -4.0
282 207 -4.0
319 207 -4.0
209 208 -4.0
210 209 -4.0
259 209 -4.0
235 210 -4.0
260 210 -4.0
212 211 -4.0
233 211 4.0
235 212 -4.0
214 213 -4.0
263 213 -4.0
291 214 -4.0
295 214 -4.0
216 215 -4.0
218 216 -4.0
298 218 4.0
248 219 4.0
270 219 -4.0
248 220 -4.0
303 220 -4.0
222 221 4.0
224 222 -4.0
310 223 4.0
310 224 -4.0
227 225 -4.0
227 226 -4.0
310 226 -4.0
313 226 -4.0
282 227 -4.0
315 227 -4.0
229 228 -4.0
285 229 -4.0
315 229 -4.0
231 230 4.0
284 230 -4.0
232 231 -4.0
234 232 -4.0
287 232 -4.0
261 233 -4.0
288 233 -4.0
261 234 -4.0
289 234 -4.0
236 235 -4.0
261 236 -4.0
239 237 -4.0
240 238 -4.0
240 239 -4.0
265 240 -4.0
243 241 -4.0
245 242 4.0
245 243 -4.0
247 244 4.0
247 245 -4.0
302 246 -4.0
275 248 4.0
250 249 4.0
274 249 4.0
252 250 -4.0
254 253 -4.0
256 254 -4.0
315 254 -4.0
257 255 -4.0
257 256 -4.0
281 256 -4.0
258 257 -4.0
259 258 4.0
260 259 -4.0
321 260 -4.0
323 260 -4.0
264 262 -4.0
297 266 4.0
269 267 -4.0
297 267 -4.0
271 268 4.0
271 269 -4.0
273 270 4.0
273 271 -4.0
276 275 4.0
278 276 -4.0
281 279 -4.0
281 280 -4.0
283 281 -4.0
284 282 -4.0
284 283 -4.0
314 283 -4.0
286 284 -4.0
287 285 4.0
287 286 -4.0
289 287 -4.0
290 288 4.0
290 289 -4.0
325 290 -4.0
294 291 -4.0
294 292 -4.0
299 297 -4.0
301 298 -4.0
300 299 -4.0
301 299 -4.0
303 300 4.0
303 301 -4.0
304 302 4.0
304 303 -4.0
305 304 -4.0
306 305 -4.0
307 306 4.0
308 307 -4.0
309 307 -4.0
312 310 -4.0
314 311 -4.0
314 312 -4.0
316 313 -4.0
316 314 -4.0
318 315 -4.0
318 316 -4.0
320 317 4.0
320 318 -4.0
321 319 4.0
321 320 -4.0
322 321 -4.0
323 322 -4.0
324 322 -4.0
0.0 # default value for linear coefficients in objective
228 # number of non-default linear coefficients in objective
98 2.0
99 2.0
100 2.0
101 2.0
102 2.0
103 2.0
104 2.0
105 4.0
106 2.0
107 2.0
108 4.0
109 2.0
110 2.0
111 2.0
112 2.0
113 2.0
114 2.0
115 2.0
116 -2.0
117 2.0
118 2.0
119 2.0
120 2.0
121 2.0
122 2.0
123 2.0
124 2.0
125 2.0
126 2.0
127 2.0
128 2.0
129 4.0
130 2.0
131 -2.0
132 2.0
133 2.0
134 2.0
135 4.0
136 4.0
137 4.0
138 4.0
139 2.0
140 4.0
141 2.0
142 2.0
143 2.0
144 2.0
145 2.0
146 4.0
147 4.0
148 2.0
149 4.0
150 4.0
151 2.0
152 4.0
153 4.0
154 4.0
155 2.0
156 2.0
157 2.0
158 2.0
159 2.0
160 2.0
161 4.0
162 2.0
163 2.0
164 4.0
165 2.0
166 2.0
167 4.0
168 2.0
169 4.0
170 4.0
171 4.0
172 2.0
173 2.0
174 2.0
175 2.0
176 2.0
177 2.0
178 2.0
179 -2.0
180 4.0
181 2.0
182 4.0
183 4.0
184 2.0
185 -2.0
186 4.0
187 2.0
188 4.0
189 4.0
190 4.0
191 2.0
192 2.0
193 2.0
194 2.0
195 2.0
196 2.0
197 2.0
198 4.0
199 2.0
200 2.0
201 -2.0
202 -2.0
203 2.0
204 4.0
205 2.0
206 4.0
207 4.0
208 2.0
209 4.0
210 4.0
211 2.0
212 2.0
213 2.0
214 2.0
215 2.0
216 2.0
217 -2.0
218 2.0
219 2.0
220 2.0
221 -4.0
222 -2.0
223 -2.0
224 4.0
225 4.0
226 4.0
227 4.0
228 4.0
229 4.0
230 -2.0
231 2.0
232 4.0
233 2.0
234 4.0
235 2.0
236 2.0
237 2.0
238 2.0
239 2.0
240 2.0
241 2.0
242 -2.0
243 2.0
244 2.0
245 2.0
246 2.0
247 2.0
248 -2.0
249 -4.0
250 2.0
251 -2.0
252 4.0
253 2.0
254 4.0
255 4.0
256 2.0
257 4.0
258 -2.0
259 2.0
260 4.0
261 4.0
262 2.0
263 -2.0
264 2.0
265 -2.0
266 -2.0
267 4.0
268 -4.0
269 4.0
270 2.0
271 2.0
272 2.0
273 2.0
274 -2.0
275 -4.0
276 2.0
277 -4.0
278 4.0
279 2.0
280 2.0
281 4.0
282 4.0
283 4.0
284 4.0
285 -2.0
286 2.0
287 2.0
288 2.0
289 2.0
290 2.0
291 2.0
292 2.0
293 -2.0
294 2.0
295 -2.0
296 -2.0
297 2.0
298 2.0
299 4.0
300 -2.0
301 4.0
302 -2.0
303 2.0
304 2.0
305 2.0
306 -2.0
307 2.0
308 -2.0
309 4.0
310 2.0
311 2.0
312 2.0
313 4.0
314 4.0
315 4.0
316 4.0
317 -2.0
318 4.0
319 -2.0
320 2.0
321 2.0
322 2.0
323 2.0
324 2.0
325 2.0
0.0 # objective constant
1.79769313486232E+308 # value for infinity
0.0 # default variable primal value in starting point
0 # number of non-default variable primal values in starting point
0.0 # default variable bound dual value in starting point
0 # number of non-default variable bound dual values in starting point
0 # number of non-default variable names
0 # number of non-default constraint names
